51 6
12 11 11 10 12 11
1 0 0 0 0 0 0 3 2 3 4
7 2 6 2 8 9 10 4 5 6 7 8
7 10 10 10 10 7 2 4 51 6 7 8
7 8 5 6 4 5 6 4 5 6 7 8
1 1 5 2 1 2 2 3 9 10 11
3 3 6 2 4 3 10 4 9 10 11 12
1 9 7 9 9 8 9 2 9 11
12 2 8 10 8 2 1 3 10 11 12
1 5 10 9 8 9 5 4 13 14 15 16
6 2 5 2 6 10 9 4 13 14 15 16
4 7 2 5 3 5 3 4 13 14 15 16
6 4 8 1 3 7 7 4 13 14 15 16
9 9 4 7 1 4 1 4 17 18 19 20
7 8 7 7 3 7 3 3 17 18 20
7 7 3 4 7 1 1 2 17 18
9 9 1 3 7 2 3 4 17 18 19 20
10 6 5 3 1 1 9 3 21 22 23
10 5 4 8 7 6 5 4 21 22 23 24
1 5 2 2 2 8 1 3 21 22 23
11 7 6 2 8 4 6 4 21 22 23 24
8 9 2 8 2 9 8 3 25 27 28
4 10 9 3 8 2 5 2 25 26
6 3 2 4 4 5 9 3 25 26 27
5 3 7 6 4 6 8 3 25 27 28
9 2 9 9 2 3 5 4 29 30 31 32
6 10 1 9 1 9 6 2 29 30
7 4 7 1 1 8 5 4 29 30 31 32
11 6 3 5 6 7 5 2 29 31
8 8 1 7 7 3 5 4 33 34 35 36
4 6 5 7 1 2 2 3 33 34 36
5 7 7 2 3 7 4 4 33 34 35 36
4 3 5 10 1 6 7 3 33 35 36
4 6 9 1 5 9 3 4 37 38 39 40
9 10 6 9 7 7 6 3 37 38 39
9 5 1 2 9 4 8 4 37 38 39 40
6 9 4 9 4 1 7 4 37 38 39 40
8 2 8 9 5 4 5 4 41 42 43 44
4 1 2 3 1 7 8 3 41 42 44
3 7 3 1 2 3 4 3 41 43 44
10 5 10 3 6 6 4 4 41 42 43 44
8 6 8 6 6 8 6 3 45 46 48
3 1 8 5 5 4 4 4 45 46 47 48
7 1 2 4 10 8 6 4 45 46 47 48
8 4 7 4 3 1 4 4 45 46 47 48
1 8 1 7 4 2 1 1 49
9 10 3 7 7 10 2 2 49 50
8 8 7 1 5 9 5 2 49 50
4 9 4 2 1 5 2 1 50
7 2 10 9 6 10 6 1 51
7 3 3 3 9 9 10 1 51
0 0 0 0 0 0 0 0
